# Solution for model count
# Objective value = 9
z#1 1
z#2 0
z#3 0
z#4 0
z#5 0
z#6 1
z#7 1
z#8 0
z#9 1
z#10 0
z#11 0
z#12 1
z#13 0
z#14 0
z#15 0
z#16 0
z#17 1
z#18 0
z#19 0
z#20 0
z#21 0
z#22 1
z#23 1
z#24 1
x#24 263
x#23 811
x#22 3746
x#21 0
x#20 0
x#19 0
x#18 0
x#17 333
x#16 0
x#15 0
x#14 0
x#13 0
x#12 1168
x#11 0
x#10 0
x#9 29
x#8 0
x#7 2
x#6 2706
x#5 0
x#4 0
x#3 0
x#2 0
x#1 942
